experiments/sat_smt/run/sat-r+/results/lauren.res
solved=true
solvingTime=13.2248973846435546875
nActions=11