experiments/sat_smt/run/sat-r+/results/lauren.out
Timesteps: 1
s UNSATISFIABLE
real 0.08
user 0.01
sys 0.00
Timesteps: 2
s UNSATISFIABLE
real 0.11
user 0.02
sys 0.00
Timesteps: 3
s UNSATISFIABLE
real 0.16
user 0.05
sys 0.00
Timesteps: 4
s UNSATISFIABLE
real 0.14
user 0.08
sys 0.00
Timesteps: 5
s UNSATISFIABLE
real 0.28
user 0.22
sys 0.00
Timesteps: 6
s UNSATISFIABLE
real 0.55
user 0.45
sys 0.01
Timesteps: 7
s UNSATISFIABLE
real 1.82
user 1.58
sys 0.01
Timesteps: 8
s UNSATISFIABLE
real 1.40
user 1.29
sys 0.01
Timesteps: 9
s UNSATISFIABLE
real 2.16
user 2.00
sys 0.01
Timesteps: 10
s UNSATISFIABLE
real 2.80
user 2.64
sys 0.01
Timesteps: 11
s SATISFIABLE
real 3.70
user 3.34
sys 0.02
